
Log started (V11.0.0) Sat May 17 05:05:12 2008

Tried aggregator 1 time.
Reduced MIP has 510 rows, 5001 columns, and 10010 nonzeros.
Presolve time =    0.05 sec.
Clique table members: 500.
MIP emphasis: balance optimality and feasibility.
MIP search method: dynamic search.
Parallel mode: none, using 1 thread.
Root relaxation solution time =    0.16 sec.

        Nodes                                         Cuts/
   Node  Left     Objective  IInf  Best Integer     Best Node    ItCnt     Gap

*     0+    0                        23588.0000     2371.9019      538   89.94%
*     0+    0                         2427.0000     2371.9019      538    2.27%
      0     0     2372.0931    20     2427.0000      Fract: 6      557    2.26%
*     0+    0                         2395.0000     2372.0931      557    0.96%
      0     0     2372.4251    31     2395.0000       Cuts: 7      608    0.94%
      0     0     2372.5422    35     2395.0000    MIRcuts: 2      641    0.94%
*     0+    0                         2385.0000     2372.5422      641    0.52%
      0     0     2372.7471    41     2385.0000       Cuts: 3      656    0.51%
      0     0     2372.7473    41     2385.0000       Cuts: 3      661    0.51%
      0     0     2372.7511    43     2385.0000       Cuts: 3      673    0.51%
*     0+    0                         2383.0000     2372.7511      673    0.43%
      0     2     2373.0000    38     2383.0000     2372.7511      673    0.43%
    100    95     2374.0000    16     2383.0000     2373.0000     3803    0.42%
*   200+  165                         2382.0000     2373.0000    10029    0.38%
    200   167     2376.0000    22     2382.0000     2373.0000    10029    0.38%
    300   204     2379.1777    21     2382.0000     2373.0000    13653    0.38%
    400   213        cutoff           2382.0000     2373.0000    16862    0.38%
    500   221        cutoff           2382.0000     2373.0000    21493    0.38%
*   531+  148                         2378.0000     2374.0000    25967    0.17%
    600   172     2374.0000    18     2378.0000     2374.0000    27077    0.17%
    700   164        cutoff           2378.0000     2374.0000    28832    0.17%
    800   197     2374.0000    20     2378.0000     2374.0000    30391    0.17%
    900   263    infeasible           2378.0000     2374.0000    32111    0.17%
   1000   271    infeasible           2378.0000     2374.0000    33863    0.17%
Elapsed time =  24.78 sec. (tree size =  0.41 MB, solutions = 7)
   1100   273    infeasible           2378.0000     2374.0000    36421    0.17%
   1200   345     2374.0000    27     2378.0000     2374.0000    41761    0.17%
   1300   415     2374.1713    31     2378.0000     2374.0000    48691    0.17%
   1400   504     2374.0000    26     2378.0000     2374.0000    53787    0.17%
   1500   600     2375.0000    20     2378.0000     2374.0000    59476    0.17%
*  1531+  586                         2377.0000     2374.0000    62098    0.13%
   1600   655     2374.0000    38     2377.0000     2374.0000    68864    0.13%
   1700   702     2376.0000    24     2377.0000     2374.0000    71661    0.13%
   1800   765     2376.0000    20     2377.0000     2374.0000    79109    0.13%
   1900   805    infeasible           2377.0000     2374.0000    91634    0.13%
   2000   863     2375.0000    18     2377.0000     2374.0000   102877    0.13%
Elapsed time =  57.97 sec. (tree size =  1.43 MB, solutions = 8)
   2100   938     2376.0000    24     2377.0000     2374.0000   108118    0.13%
   2200   952     2376.0000    22     2377.0000     2374.0000   116950    0.13%
   2300   956     2376.0000    25     2377.0000     2374.0000   121821    0.13%
   2400  1024     2374.0000    22     2377.0000     2374.0000   124702    0.13%
   2500  1111     2375.0000    19     2377.0000     2374.0000   132029    0.13%
   2600  1188     2376.0000    20     2377.0000     2374.0000   139380    0.13%
   2700  1284     2374.0000    20     2377.0000     2374.0000   142878    0.13%
   2800  1376     2375.0000    22     2377.0000     2374.0000   150511    0.13%
   2900  1447     2375.3398    30     2377.0000     2374.0000   161845    0.13%
   3000  1532     2375.0000    26     2377.0000     2374.0000   169592    0.13%
Elapsed time =  88.39 sec. (tree size =  2.62 MB, solutions = 8)
   3100  1616     2376.0000    22     2377.0000     2374.0000   175647    0.13%
   3200  1709     2375.0000    20     2377.0000     2374.0000   179226    0.13%
   3300  1797     2374.0000    22     2377.0000     2374.0000   183878    0.13%
   3400  1884     2374.1301    40     2377.0000     2374.0000   193263    0.13%
   3500  1962     2374.0000    30     2377.0000     2374.0000   202611    0.13%
   3600  2019     2375.2519    31     2377.0000     2374.0000   215519    0.13%
   3700  2083     2375.0000    25     2377.0000     2374.0000   227371    0.13%
   3800  2160     2375.0000    24     2377.0000     2374.0000   234394    0.13%
   3900  2259     2376.0000    16     2377.0000     2374.0000   237408    0.13%
   4000  2345     2376.0000    24     2377.0000     2374.0000   242236    0.13%
Elapsed time = 121.88 sec. (tree size =  4.20 MB, solutions = 8)
   4100  2427        cutoff           2377.0000     2374.0000   248861    0.13%
   4200  2519     2374.0000    31     2377.0000     2374.0000   253257    0.13%
   4300  2615     2376.0000    30     2377.0000     2374.0000   258738    0.13%
   4400  2709     2374.0000    32     2377.0000     2374.0000   267378    0.13%
   4500  2797     2375.0000    45     2377.0000     2374.0000   271948    0.13%
*  4531+ 2006                         2376.0000     2374.0000   273514    0.08%
   4600  2077     2375.0000    34     2376.0000     2374.0000   275764    0.08%
   4700  2157     2375.0000    24     2376.0000     2374.0000   285545    0.08%
   4800  2209     2374.0000    44     2376.0000     2374.0000   306602    0.08%
   4900  2303     2375.0000    28     2376.0000     2374.0000   311433    0.08%
   5000  2403     2375.0000    29     2376.0000     2374.0000   315008    0.08%
Elapsed time = 154.56 sec. (tree size =  4.27 MB, solutions = 9)
   5100  2489     2375.0000    30     2376.0000     2374.0000   321403    0.08%
   5200  2534     2375.0000    36     2376.0000     2374.0000   336020    0.08%
   5300  2619     2375.0000    28     2376.0000     2374.0000   345090    0.08%
   5400  2710     2374.0000    35     2376.0000     2374.0000   354653    0.08%
   5500  2796     2375.0000    22     2376.0000     2374.0000   361762    0.08%
*  5531+ 1252                         2375.0000     2374.0000   363927    0.04%
   5600  1306     2374.0000    40     2375.0000     2374.0000   370702    0.04%
   5700  1400     2374.0000    34     2375.0000     2374.0000   376351    0.04%
   5800  1492     2374.0000    28     2375.0000     2374.0000   385747    0.04%
   5900  1582     2374.0000    24     2375.0000     2374.0000   393964    0.04%
   6000  1664     2374.0000    39     2375.0000     2374.0000   405514    0.04%
Elapsed time = 197.97 sec. (tree size =  2.61 MB, solutions = 10)
   6100  1756     2374.0000    24     2375.0000     2374.0000   413632    0.04%
   6200  1836     2374.0000    28     2375.0000     2374.0000   426038    0.04%
   6300  1912     2374.0000    40     2375.0000     2374.0000   441171    0.04%
   6400  1994     2374.0000    27     2375.0000     2374.0000   451512    0.04%
   6500  2078    infeasible           2375.0000     2374.0000   462516    0.04%
*  6531+    1                         2374.0000     2374.0000   465730    0.00%

Cover cuts applied:  372
Mixed integer rounding cuts applied:  16
Gomory fractional cuts applied:  18

Solution pool: 11 solutions saved.

MIP - Integer optimal solution:  Objective = 2.3740000000e+003
Solution time =  231.58 sec.  Iterations = 465730  Nodes = 6531


Incumbent solution
Variable Name           Solution Value
Cmax                       2374.000000
X_1_6                         1.000000
X_2_7                         1.000000
X_3_10                        1.000000
X_4_8                         1.000000
X_5_7                         1.000000
X_6_5                         1.000000
X_7_10                        1.000000
X_8_3                         1.000000
X_9_8                         1.000000
X_10_6                        1.000000
X_11_4                        1.000000
X_12_10                       1.000000
X_13_7                        1.000000
X_14_7                        1.000000
X_15_3                        1.000000
X_16_7                        1.000000
X_17_9                        1.000000
X_18_1                        1.000000
X_19_4                        1.000000
X_20_7                        1.000000
X_21_7                        1.000000
X_22_7                        1.000000
X_23_1                        1.000000
X_24_8                        1.000000
X_25_7                        1.000000
X_26_7                        1.000000
X_27_10                       1.000000
X_28_9                        1.000000
X_29_4                        1.000000
X_30_4                        1.000000
X_31_7                        1.000000
X_32_9                        1.000000
X_33_9                        1.000000
X_34_4                        1.000000
X_35_2                        1.000000
X_36_8                        1.000000
X_37_3                        1.000000
X_38_7                        1.000000
X_39_4                        1.000000
X_40_3                        1.000000
X_41_10                       1.000000
X_42_7                        1.000000
X_43_7                        1.000000
X_44_5                        1.000000
X_45_7                        1.000000
X_46_7                        1.000000
X_47_3                        1.000000
X_48_6                        1.000000
X_49_9                        1.000000
X_50_2                        1.000000
X_51_3                        1.000000
X_52_1                        1.000000
X_53_10                       1.000000
X_54_9                        1.000000
X_55_1                        1.000000
X_56_7                        1.000000
X_57_10                       1.000000
X_58_8                        1.000000
X_59_9                        1.000000
X_60_8                        1.000000
X_61_6                        1.000000
X_62_7                        1.000000
X_63_10                       1.000000
X_64_3                        1.000000
X_65_7                        1.000000
X_66_7                        1.000000
X_67_7                        1.000000
X_68_5                        1.000000
X_69_3                        1.000000
X_70_7                        1.000000
X_71_10                       1.000000
X_72_10                       1.000000
X_73_10                       1.000000
X_74_10                       1.000000
X_75_7                        1.000000
X_76_7                        1.000000
X_77_7                        1.000000
X_78_7                        1.000000
X_79_7                        1.000000
X_80_9                        1.000000
X_81_10                       1.000000
X_82_9                        1.000000
X_83_3                        1.000000
X_84_3                        1.000000
X_85_7                        1.000000
X_86_4                        1.000000
X_87_8                        1.000000
X_88_8                        1.000000
X_89_3                        1.000000
X_90_5                        1.000000
X_91_1                        1.000000
X_92_5                        1.000000
X_93_9                        1.000000
X_94_6                        1.000000
X_95_1                        1.000000
X_96_2                        1.000000
X_97_7                        1.000000
X_98_9                        1.000000
X_99_10                       1.000000
X_100_1                       1.000000
X_101_6                       1.000000
X_102_7                       1.000000
X_103_6                       1.000000
X_104_10                      1.000000
X_105_6                       1.000000
X_106_3                       1.000000
X_107_8                       1.000000
X_108_3                       1.000000
X_109_3                       1.000000
X_110_7                       1.000000
X_111_3                       1.000000
X_112_10                      1.000000
X_113_7                       1.000000
X_114_4                       1.000000
X_115_7                       1.000000
X_116_8                       1.000000
X_117_4                       1.000000
X_118_6                       1.000000
X_119_10                      1.000000
X_120_10                      1.000000
X_121_3                       1.000000
X_122_10                      1.000000
X_123_10                      1.000000
X_124_5                       1.000000
X_125_2                       1.000000
X_126_4                       1.000000
X_127_2                       1.000000
X_128_7                       1.000000
X_129_7                       1.000000
X_130_9                       1.000000
X_131_7                       1.000000
X_132_1                       1.000000
X_133_4                       1.000000
X_134_7                       1.000000
X_135_10                      1.000000
X_136_2                       1.000000
X_137_10                      1.000000
X_138_6                       1.000000
X_139_6                       1.000000
X_140_9                       1.000000
X_141_7                       1.000000
X_142_10                      1.000000
X_143_1                       1.000000
X_144_6                       1.000000
X_145_6                       1.000000
X_146_6                       1.000000
X_147_2                       1.000000
X_148_3                       1.000000
X_149_7                       1.000000
X_150_7                       1.000000
X_151_7                       1.000000
X_152_7                       1.000000
X_153_5                       1.000000
X_154_10                      1.000000
X_155_7                       1.000000
X_156_3                       1.000000
X_157_3                       1.000000
X_158_4                       1.000000
X_159_1                       1.000000
X_160_3                       1.000000
X_161_7                       1.000000
X_162_2                       1.000000
X_163_1                       1.000000
X_164_10                      1.000000
X_165_1                       1.000000
X_166_7                       1.000000
X_167_5                       1.000000
X_168_7                       1.000000
X_169_7                       1.000000
X_170_9                       1.000000
X_171_2                       1.000000
X_172_2                       1.000000
X_173_7                       1.000000
X_174_10                      1.000000
X_175_10                      1.000000
X_176_9                       1.000000
X_177_1                       1.000000
X_178_8                       1.000000
X_179_7                       1.000000
X_180_8                       1.000000
X_181_7                       1.000000
X_182_4                       1.000000
X_183_3                       1.000000
X_184_10                      1.000000
X_185_10                      1.000000
X_186_5                       1.000000
X_187_7                       1.000000
X_188_3                       1.000000
X_189_7                       1.000000
X_190_2                       1.000000
X_191_7                       1.000000
X_192_5                       1.000000
X_193_7                       1.000000
X_194_10                      1.000000
X_195_10                      1.000000
X_196_7                       1.000000
X_197_7                       1.000000
X_198_9                       1.000000
X_199_10                      1.000000
X_200_5                       1.000000
X_201_10                      1.000000
X_202_7                       1.000000
X_203_7                       1.000000
X_204_5                       1.000000
X_205_7                       1.000000
X_206_2                       1.000000
X_207_8                       1.000000
X_208_9                       1.000000
X_209_7                       1.000000
X_210_7                       1.000000
X_211_10                      1.000000
X_212_2                       1.000000
X_213_9                       1.000000
X_214_9                       1.000000
X_215_9                       1.000000
X_216_7                       1.000000
X_217_7                       1.000000
X_218_8                       1.000000
X_219_9                       1.000000
X_220_8                       1.000000
X_221_3                       1.000000
X_222_7                       1.000000
X_223_9                       1.000000
X_224_1                       1.000000
X_225_8                       1.000000
X_226_7                       1.000000
X_227_1                       1.000000
X_228_7                       1.000000
X_229_7                       1.000000
X_230_9                       1.000000
X_231_2                       1.000000
X_232_6                       1.000000
X_233_6                       1.000000
X_234_6                       1.000000
X_235_7                       1.000000
X_236_7                       1.000000
X_237_1                       1.000000
X_238_7                       1.000000
X_239_7                       1.000000
X_240_3                       1.000000
X_241_2                       1.000000
X_242_6                       1.000000
X_243_7                       1.000000
X_244_3                       1.000000
X_245_2                       1.000000
X_246_6                       1.000000
X_247_1                       1.000000
X_248_7                       1.000000
X_249_7                       1.000000
X_250_1                       1.000000
X_251_7                       1.000000
X_252_5                       1.000000
X_253_9                       1.000000
X_254_10                      1.000000
X_255_10                      1.000000
X_256_4                       1.000000
X_257_10                      1.000000
X_258_7                       1.000000
X_259_9                       1.000000
X_260_9                       1.000000
X_261_8                       1.000000
X_262_7                       1.000000
X_263_1                       1.000000
X_264_3                       1.000000
X_265_7                       1.000000
X_266_7                       1.000000
X_267_8                       1.000000
X_268_7                       1.000000
X_269_6                       1.000000
X_270_7                       1.000000
X_271_8                       1.000000
X_272_1                       1.000000
X_273_7                       1.000000
X_274_7                       1.000000
X_275_5                       1.000000
X_276_10                      1.000000
X_277_10                      1.000000
X_278_2                       1.000000
X_279_8                       1.000000
X_280_6                       1.000000
X_281_8                       1.000000
X_282_3                       1.000000
X_283_7                       1.000000
X_284_1                       1.000000
X_285_7                       1.000000
X_286_4                       1.000000
X_287_7                       1.000000
X_288_8                       1.000000
X_289_7                       1.000000
X_290_1                       1.000000
X_291_7                       1.000000
X_292_5                       1.000000
X_293_10                      1.000000
X_294_10                      1.000000
X_295_3                       1.000000
X_296_10                      1.000000
X_297_7                       1.000000
X_298_9                       1.000000
X_299_10                      1.000000
X_300_3                       1.000000
X_301_7                       1.000000
X_302_6                       1.000000
X_303_7                       1.000000
X_304_10                      1.000000
X_305_5                       1.000000
X_306_9                       1.000000
X_307_9                       1.000000
X_308_5                       1.000000
X_309_7                       1.000000
X_310_2                       1.000000
X_311_5                       1.000000
X_312_4                       1.000000
X_313_10                      1.000000
X_314_3                       1.000000
X_315_7                       1.000000
X_316_9                       1.000000
X_317_7                       1.000000
X_318_7                       1.000000
X_319_10                      1.000000
X_320_3                       1.000000
X_321_3                       1.000000
X_322_10                      1.000000
X_323_6                       1.000000
X_324_2                       1.000000
X_325_5                       1.000000
X_326_9                       1.000000
X_327_7                       1.000000
X_328_4                       1.000000
X_329_7                       1.000000
X_330_7                       1.000000
X_331_8                       1.000000
X_332_7                       1.000000
X_333_3                       1.000000
X_334_7                       1.000000
X_335_2                       1.000000
X_336_7                       1.000000
X_337_7                       1.000000
X_338_10                      1.000000
X_339_7                       1.000000
X_340_10                      1.000000
X_341_2                       1.000000
X_342_1                       1.000000
X_343_3                       1.000000
X_344_2                       1.000000
X_345_8                       1.000000
X_346_3                       1.000000
X_347_7                       1.000000
X_348_8                       1.000000
X_349_7                       1.000000
X_350_7                       1.000000
X_351_5                       1.000000
X_352_7                       1.000000
X_353_2                       1.000000
X_354_3                       1.000000
X_355_6                       1.000000
X_356_8                       1.000000
X_357_2                       1.000000
X_358_5                       1.000000
X_359_9                       1.000000
X_360_4                       1.000000
X_361_5                       1.000000
X_362_9                       1.000000
X_363_7                       1.000000
X_364_3                       1.000000
X_365_4                       1.000000
X_366_9                       1.000000
X_367_4                       1.000000
X_368_6                       1.000000
X_369_9                       1.000000
X_370_7                       1.000000
X_371_4                       1.000000
X_372_5                       1.000000
X_373_6                       1.000000
X_374_7                       1.000000
X_375_10                      1.000000
X_376_7                       1.000000
X_377_3                       1.000000
X_378_6                       1.000000
X_379_10                      1.000000
X_380_8                       1.000000
X_381_3                       1.000000
X_382_8                       1.000000
X_383_4                       1.000000
X_384_8                       1.000000
X_385_3                       1.000000
X_386_7                       1.000000
X_387_7                       1.000000
X_388_7                       1.000000
X_389_9                       1.000000
X_390_3                       1.000000
X_391_3                       1.000000
X_392_9                       1.000000
X_393_3                       1.000000
X_394_10                      1.000000
X_395_7                       1.000000
X_396_2                       1.000000
X_397_7                       1.000000
X_398_1                       1.000000
X_399_5                       1.000000
X_400_3                       1.000000
X_401_8                       1.000000
X_402_7                       1.000000
X_403_7                       1.000000
X_404_7                       1.000000
X_405_7                       1.000000
X_406_5                       1.000000
X_407_7                       1.000000
X_408_1                       1.000000
X_409_2                       1.000000
X_410_4                       1.000000
X_411_9                       1.000000
X_412_2                       1.000000
X_413_9                       1.000000
X_414_7                       1.000000
X_415_7                       1.000000
X_416_7                       1.000000
X_417_5                       1.000000
X_418_7                       1.000000
X_419_10                      1.000000
X_420_7                       1.000000
X_421_3                       1.000000
X_422_8                       1.000000
X_423_8                       1.000000
X_424_8                       1.000000
X_425_2                       1.000000
X_426_7                       1.000000
X_427_2                       1.000000
X_428_6                       1.000000
X_429_7                       1.000000
X_430_5                       1.000000
X_431_5                       1.000000
X_432_6                       1.000000
X_433_10                      1.000000
X_434_9                       1.000000
X_435_10                      1.000000
X_436_4                       1.000000
X_437_10                      1.000000
X_438_3                       1.000000
X_439_7                       1.000000
X_440_3                       1.000000
X_441_6                       1.000000
X_442_8                       1.000000
X_443_2                       1.000000
X_444_5                       1.000000
X_445_7                       1.000000
X_446_7                       1.000000
X_447_7                       1.000000
X_448_7                       1.000000
X_449_3                       1.000000
X_450_7                       1.000000
X_451_10                      1.000000
X_452_7                       1.000000
X_453_1                       1.000000
X_454_7                       1.000000
X_455_8                       1.000000
X_456_7                       1.000000
X_457_4                       1.000000
X_458_10                      1.000000
X_459_7                       1.000000
X_460_9                       1.000000
X_461_7                       1.000000
X_462_1                       1.000000
X_463_4                       1.000000
X_464_6                       1.000000
X_465_2                       1.000000
X_466_3                       1.000000
X_467_7                       1.000000
X_468_9                       1.000000
X_469_1                       1.000000
X_470_7                       1.000000
X_471_6                       1.000000
X_472_8                       1.000000
X_473_6                       1.000000
X_474_7                       1.000000
X_475_2                       1.000000
X_476_9                       1.000000
X_477_7                       1.000000
X_478_5                       1.000000
X_479_2                       1.000000
X_480_9                       1.000000
X_481_8                       1.000000
X_482_8                       1.000000
X_483_10                      1.000000
X_484_4                       1.000000
X_485_9                       1.000000
X_486_8                       1.000000
X_487_3                       1.000000
X_488_8                       1.000000
X_489_7                       1.000000
X_490_8                       1.000000
X_491_7                       1.000000
X_492_8                       1.000000
X_493_10                      1.000000
X_494_6                       1.000000
X_495_6                       1.000000
X_496_3                       1.000000
X_497_1                       1.000000
X_498_2                       1.000000
X_499_7                       1.000000
X_500_10                      1.000000
All other variables in the range 1-5001 are 0.
